Version identifier: 12.10.0.0 | 2019-11-26 | 843d4de
CPXPARAM_WorkMem                                 16384
CPXPARAM_MIP_Limits_TreeMemory                   24576
Tried aggregator 2 times.
Aggregator did 20 substitutions.
Reduced MIP has 73 rows, 90 columns, and 339 nonzeros.
Reduced MIP has 90 binaries, 0 generals, 0 SOSs, and 0 indicators.
Presolve time = 0,00 sec. (0,32 ticks)
Found incumbent of value 219,000000 after 0,00 sec. (0,54 ticks)
Probing time = 0,00 sec. (0,10 ticks)
Tried aggregator 1 time.
Detecting symmetries...
MIP Presolve eliminated 15 rows and 0 columns.
MIP Presolve added 30 rows and 0 columns.
Reduced MIP has 88 rows, 90 columns, and 354 nonzeros.
Reduced MIP has 90 binaries, 0 generals, 0 SOSs, and 0 indicators.
Presolve time = 0,00 sec. (0,41 ticks)
Probing time = 0,00 sec. (0,10 ticks)
Clique table members: 229.
MIP emphasis: balance optimality and feasibility.
MIP search method: dynamic search.
Parallel mode: deterministic, using up to 16 threads.
Root relaxation solution time = 0,00 sec. (0,21 ticks)

        Nodes                                         Cuts/
   Node  Left     Objective  IInf  Best Integer    Best Bound    ItCnt     Gap

*     0+    0                          219,0000        0,0000           100,00%
*     0+    0                          136,0000        0,0000           100,00%
*     0+    0                          133,0000        0,0000           100,00%
      0     0       73,0000    67      133,0000       73,0000       33   45,11%
*     0+    0                          122,0000       73,0000            40,16%
      0     0       73,0000    67      122,0000      Cuts: 86       58   40,16%
      0     0       73,0000    67      122,0000     Cuts: 104       83   40,16%
      0     0       73,0000    67      122,0000     Cuts: 120      149   40,16%
      0     2       76,0526    57      122,0000      109,0000      159   10,66%
Elapsed time = 0,08 sec. (11,01 ticks, tree = 0,02 MB, solutions = 4)

Clique cuts applied:  15
Cover cuts applied:  19
Mixed integer rounding cuts applied:  1
Zero-half cuts applied:  1
Gomory fractional cuts applied:  1

Root node processing (before b&c):
  Real time             =    0,06 sec. (10,97 ticks)
Parallel b&c, 16 threads:
  Real time             =    0,23 sec. (2,90 ticks)
  Sync time (average)   =    0,21 sec.
  Wait time (average)   =    0,00 sec.
                          ------------
Total (root+branch&cut) =    0,29 sec. (13,86 ticks)
